CUST NO.,SPOT ID,PARKING TIME_ARRIVE,PARKING TIME_OPEN
0,0,0,0
156,156,60,0
157,157,60,0
158,158,60,0
159,159,60,0
160,160,60,0
161,161,60,0
162,162,60,0
163,163,60,0
168,168,60,0
169,169,60,0
170,170,60,0
175,175,60,0
164,164,60,0
165,165,60,0
31,31,60,0
176,176,60,0
177,177,60,0
178,178,60,0
312,312,60,0
1000000,0,0,0
1000001,0,0,0
1000002,0,0,0
1000003,0,0,0